language ESSENCE' 1.0

letting jobs = 102
letting horizon = 816
letting resourcesRenew = 2
letting resourcesNonrenew = 2
letting resourceLimits = [92, 86, 125, 188]
letting successors = [[2, 3, 4, 5, 6, 7, 8, 9, 10, 11, 12, 13, 14, 15, 16, 17, 18, 19, 20, 21, 22, 23, 25, 26, 27, 31, 33, 37, 39, 40], [75, 73, 68, 63, 57, 55, 50, 49, 45, 44, 42, 41, 38, 35, 32, 29, 24], [101, 100, 98, 97, 96, 95, 91, 71, 70, 69, 68, 66, 64, 60, 58, 56, 55, 54, 52, 51, 49, 46], [100, 98, 72, 70, 68, 66, 57, 52, 51, 50, 49, 47, 46, 38, 28], [99, 76, 72, 69, 63, 62, 59, 54, 53, 52, 50, 49, 38, 36, 35], [98, 97, 95, 91, 89, 72, 69, 68, 66, 64, 60, 58, 55, 54, 52, 51, 50, 49, 47], [101, 99, 97, 94, 86, 72, 71, 70, 66, 63, 59, 58, 55, 52, 49, 45, 34], [101, 100, 75, 70, 69, 63, 59, 55, 54, 48, 46, 43, 42, 29], [100, 98, 97, 74, 70, 69, 65, 59, 58, 30, 29], [101, 100, 98, 97, 95, 92, 87, 73, 71, 67, 63, 59, 58, 57, 54, 48, 41], [98, 96, 95, 91, 74, 73, 71, 70, 68, 66, 65, 63, 58, 56, 55, 52, 50, 49], [100, 99, 96, 93, 92, 90, 89, 84, 71, 68, 66, 65, 64, 62, 59, 58, 53, 50, 46], [101, 98, 96, 94, 89, 72, 69, 65, 64, 62, 50, 30], [100, 97, 95, 87, 69, 66, 64, 62, 60, 58, 57, 54, 47], [97, 89, 72, 71, 68, 64, 62, 59, 56, 32], [100, 97, 95, 93, 92, 75, 72, 69, 64, 62, 59, 58, 35], [94, 71, 68, 67, 66, 63, 58, 56, 55, 50, 34], [98, 97, 96, 95, 92, 91, 89, 79, 68, 66, 64, 62, 59, 58, 54, 52], [98, 96, 95, 93, 92, 90, 87, 86, 71, 68, 65, 64, 62, 60, 59, 49, 46], [101, 100, 97, 95, 82, 73, 71, 67, 62, 59, 58, 50, 35], [98, 97, 96, 90, 71, 66, 63, 62, 57, 56, 46], [101, 99, 95, 92, 91, 88, 86, 81, 79, 76, 69, 64, 63, 61, 52, 46], [99, 98, 97, 95, 91, 90, 83, 79, 70, 67, 66, 65, 63, 61, 52], [99, 95, 93, 91, 89, 88, 85, 71, 69, 67, 64, 58, 47], [100, 99, 96, 93, 91, 87, 84, 83, 80, 79, 74, 67, 66, 64, 62, 61, 59], [97, 96, 94, 92, 91, 89, 88, 83, 81, 80, 79, 74, 63, 61, 54], [98, 96, 94, 93, 92, 91, 90, 86, 84, 83, 61, 56, 51], [93, 92, 90, 89, 88, 87, 86, 85, 84, 83, 82, 78, 69, 67, 65, 60], [96, 94, 92, 86, 84, 83, 79, 67, 64, 62, 61, 52], [95, 91, 86, 82, 80, 68, 66, 61, 55, 49], [93, 91, 90, 89, 88, 87, 86, 84, 67, 64, 46], [98, 96, 92, 91, 87, 84, 79, 54, 46], [101, 97, 91, 90, 87, 86, 83, 80, 79, 66, 62, 61, 59], [100, 95, 92, 90, 89, 84, 83, 81, 80, 79, 65, 64, 61], [91, 90, 88, 86, 84, 83, 81, 80, 79, 78, 77, 70, 66], [98, 93, 92, 91, 89, 87, 86, 84, 80, 78, 68, 65, 64], [99, 96, 86, 85, 84, 83, 81, 79, 77, 52], [97, 95, 93, 92, 90, 89, 87, 85, 81, 80, 79, 78, 64], [99, 95, 94, 89, 85, 83, 79, 64, 52], [101, 100, 93, 91, 84, 81, 80, 66, 65, 61], [84, 83, 82, 81, 80, 79, 70, 62, 61], [91, 90, 87, 86, 80, 79, 78, 64, 62], [90, 89, 88, 86, 81, 64, 58], [100, 90, 89, 86, 82, 81, 80, 79, 78, 65], [90, 89, 85, 80, 79, 78, 69, 62], [94, 85, 83, 82, 80, 78, 77], [96, 94, 92, 84, 81, 79, 77], [94, 93, 90, 85, 81, 80, 78], [88, 84, 79, 77, 67], [86, 85, 79, 61], [87, 80, 79, 62], [93, 87, 82, 80, 78], [91, 87, 83, 79, 77], [90, 86, 82, 65], [92, 84, 83, 79], [99, 87, 81, 79], [91, 89, 86, 85], [83, 61], [88, 81, 77], [80, 79, 77], [78, 77], [88, 77], [84, 82], [82], [77], [85], [81], [77], [77], [89], [80], [87], [79], [77], [90], [77], [102], [102], [102], [102], [102], [102], [102], [102], [102], [102], [102], [102], [102], [102], [102], [102], [102], [102], [102], [102], [102], [102], [102], [102], [102], []]
letting durations = [[0], [4, 6, 7], [1, 2, 3], [5, 5, 6], [1, 3, 10], [1, 4, 5], [2, 2, 10], [3, 4, 9], [1, 3, 4], [3, 4, 6], [3, 5, 10], [1, 6, 9], [4, 8, 9], [5, 7, 8], [2, 8, 10], [2, 5, 10], [2, 7, 10], [2, 5, 8], [1, 9, 10], [6, 7, 8], [8, 8, 9], [6, 7, 9], [3, 5, 10], [3, 8, 10], [1, 5, 10], [5, 7, 9], [1, 5, 7], [5, 7, 9], [2, 3, 7], [3, 7, 9], [4, 6, 10], [4, 7, 9], [4, 10, 10], [1, 6, 10], [3, 8, 9], [5, 8, 10], [3, 4, 10], [1, 2, 6], [5, 5, 7], [7, 8, 10], [3, 5, 6], [1, 2, 8], [2, 3, 8], [1, 6, 6], [5, 7, 9], [6, 8, 8], [1, 5, 10], [3, 3, 6], [1, 2, 8], [4, 5, 8], [3, 6, 6], [4, 5, 10], [2, 3, 10], [7, 7, 10], [3, 9, 9], [1, 2, 2], [3, 4, 5], [1, 3, 3], [4, 7, 9], [5, 6, 10], [3, 8, 8], [5, 8, 8], [2, 6, 8], [6, 9, 10], [1, 2, 3], [2, 7, 8], [2, 5, 8], [2, 3, 10], [2, 3, 8], [1, 5, 5], [5, 6, 7], [3, 7, 9], [2, 5, 7], [2, 7, 8], [3, 6, 7], [1, 4, 8], [3, 3, 10], [1, 7, 7], [1, 4, 9], [4, 5, 8], [7, 10, 10], [2, 7, 9], [6, 10, 10], [2, 6, 7], [4, 6, 10], [2, 3, 7], [1, 2, 6], [6, 9, 10], [1, 4, 9], [2, 5, 7], [5, 6, 7], [3, 3, 8], [4, 6, 10], [4, 6, 9], [6, 9, 10], [1, 2, 6], [4, 6, 9], [1, 6, 8], [2, 5, 8], [4, 6, 10], [1, 3, 7], [0]]
letting resourceUsage = [[[0, 0, 0, 0]], [[6, 0, 0, 7], [0, 5, 0, 6], [6, 0, 0, 4]], [[9, 0, 10, 0], [8, 0, 7, 0], [8, 0, 6, 0]], [[6, 0, 0, 4], [0, 7, 0, 3], [0, 4, 7, 0]], [[5, 0, 0, 5], [0, 2, 7, 0], [4, 0, 0, 2]], [[9, 0, 0, 6], [5, 0, 0, 4], [1, 0, 2, 0]], [[4, 0, 8, 0], [0, 7, 7, 0], [0, 7, 0, 1]], [[8, 0, 0, 6], [7, 0, 6, 0], [7, 0, 4, 0]], [[6, 0, 9, 0], [5, 0, 0, 6], [0, 1, 5, 0]], [[0, 7, 3, 0], [1, 0, 3, 0], [0, 2, 1, 0]], [[0, 4, 0, 3], [4, 0, 0, 2], [3, 0, 4, 0]], [[6, 0, 0, 9], [0, 9, 3, 0], [0, 9, 2, 0]], [[0, 6, 5, 0], [6, 0, 4, 0], [0, 3, 3, 0]], [[0, 9, 10, 0], [0, 4, 8, 0], [4, 0, 0, 3]], [[6, 0, 0, 4], [5, 0, 9, 0], [4, 0, 7, 0]], [[0, 9, 0, 9], [0, 9, 0, 8], [7, 0, 0, 7]], [[9, 0, 0, 5], [0, 6, 0, 4], [0, 5, 5, 0]], [[0, 4, 0, 9], [0, 4, 3, 0], [0, 2, 1, 0]], [[0, 3, 1, 0], [0, 2, 1, 0], [4, 0, 0, 9]], [[7, 0, 0, 6], [6, 0, 0, 6], [0, 7, 0, 5]], [[8, 0, 0, 6], [0, 8, 0, 5], [6, 0, 2, 0]], [[0, 7, 0, 9], [0, 4, 4, 0], [7, 0, 0, 3]], [[0, 6, 7, 0], [6, 0, 6, 0], [0, 6, 0, 1]], [[0, 7, 10, 0], [4, 0, 0, 3], [3, 0, 0, 1]], [[0, 9, 7, 0], [7, 0, 6, 0], [6, 0, 6, 0]], [[8, 0, 0, 10], [0, 5, 5, 0], [0, 3, 0, 10]], [[0, 3, 6, 0], [0, 1, 4, 0], [7, 0, 3, 0]], [[9, 0, 0, 9], [0, 8, 0, 6], [9, 0, 0, 4]], [[3, 0, 2, 0], [3, 0, 1, 0], [0, 4, 2, 0]], [[0, 3, 0, 7], [0, 1, 2, 0], [4, 0, 2, 0]], [[0, 10, 1, 0], [0, 6, 1, 0], [8, 0, 1, 0]], [[3, 0, 0, 10], [1, 0, 3, 0], [0, 5, 1, 0]], [[0, 8, 0, 8], [5, 0, 0, 6], [0, 5, 0, 3]], [[4, 0, 7, 0], [0, 1, 6, 0], [0, 1, 0, 2]], [[5, 0, 0, 5], [4, 0, 5, 0], [4, 0, 1, 0]], [[9, 0, 6, 0], [5, 0, 0, 8], [5, 0, 0, 7]], [[0, 7, 9, 0], [0, 7, 7, 0], [2, 0, 0, 4]], [[8, 0, 0, 9], [0, 5, 0, 7], [6, 0, 0, 2]], [[0, 7, 0, 9], [5, 0, 0, 7], [5, 0, 0, 5]], [[0, 7, 0, 9], [4, 0, 6, 0], [0, 3, 2, 0]], [[7, 0, 6, 0], [0, 3, 4, 0], [5, 0, 0, 4]], [[0, 10, 0, 10], [0, 9, 3, 0], [3, 0, 1, 0]], [[7, 0, 0, 8], [4, 0, 0, 6], [3, 0, 0, 3]], [[0, 5, 7, 0], [6, 0, 6, 0], [4, 0, 0, 2]], [[0, 9, 0, 5], [7, 0, 5, 0], [7, 0, 1, 0]], [[0, 6, 6, 0], [0, 6, 0, 8], [6, 0, 0, 8]], [[0, 6, 9, 0], [0, 5, 7, 0], [9, 0, 0, 4]], [[0, 7, 0, 9], [6, 0, 0, 7], [3, 0, 0, 2]], [[8, 0, 0, 9], [0, 8, 0, 7], [0, 7, 0, 5]], [[6, 0, 0, 9], [0, 6, 6, 0], [4, 0, 2, 0]], [[8, 0, 6, 0], [7, 0, 4, 0], [0, 7, 0, 4]], [[0, 4, 0, 10], [4, 0, 0, 6], [4, 0, 0, 5]], [[0, 10, 0, 4], [0, 7, 0, 3], [1, 0, 1, 0]], [[0, 9, 0, 3], [5, 0, 5, 0], [0, 6, 0, 1]], [[0, 2, 0, 7], [0, 2, 0, 6], [1, 0, 7, 0]], [[9, 0, 0, 8], [0, 5, 0, 7], [8, 0, 0, 5]], [[3, 0, 6, 0], [2, 0, 3, 0], [1, 0, 0, 5]], [[9, 0, 0, 9], [0, 4, 0, 6], [7, 0, 0, 3]], [[0, 7, 1, 0], [7, 0, 0, 5], [0, 6, 1, 0]], [[0, 4, 0, 9], [0, 4, 0, 6], [0, 3, 0, 1]], [[6, 0, 0, 6], [0, 8, 0, 5], [0, 7, 5, 0]], [[0, 7, 0, 10], [6, 0, 0, 6], [0, 6, 0, 5]], [[0, 1, 0, 10], [0, 1, 5, 0], [4, 0, 2, 0]], [[0, 6, 0, 5], [5, 0, 0, 4], [0, 5, 0, 3]], [[5, 0, 5, 0], [4, 0, 3, 0], [1, 0, 3, 0]], [[0, 6, 7, 0], [4, 0, 0, 5], [4, 0, 0, 4]], [[6, 0, 0, 5], [0, 9, 5, 0], [4, 0, 0, 2]], [[8, 0, 0, 7], [8, 0, 0, 6], [0, 2, 2, 0]], [[0, 9, 0, 6], [0, 8, 0, 4], [0, 8, 7, 0]], [[0, 9, 3, 0], [8, 0, 0, 7], [4, 0, 1, 0]], [[0, 3, 0, 3], [0, 3, 0, 2], [0, 3, 0, 1]], [[0, 6, 4, 0], [0, 6, 0, 5], [0, 6, 0, 2]], [[3, 0, 2, 0], [0, 5, 2, 0], [0, 3, 2, 0]], [[0, 6, 0, 4], [6, 0, 3, 0], [5, 0, 2, 0]], [[0, 8, 0, 5], [0, 4, 0, 2], [2, 0, 0, 1]], [[10, 0, 0, 6], [0, 8, 0, 3], [9, 0, 0, 1]], [[10, 0, 6, 0], [8, 0, 0, 5], [0, 2, 0, 1]], [[0, 6, 0, 5], [0, 5, 0, 2], [0, 4, 6, 0]], [[0, 7, 0, 8], [0, 6, 0, 8], [0, 4, 6, 0]], [[7, 0, 7, 0], [7, 0, 6, 0], [0, 8, 5, 0]], [[0, 8, 0, 4], [1, 0, 0, 3], [0, 6, 0, 3]], [[3, 0, 0, 5], [3, 0, 0, 3], [3, 0, 0, 2]], [[0, 2, 0, 8], [0, 2, 0, 7], [0, 2, 2, 0]], [[1, 0, 0, 5], [0, 6, 6, 0], [0, 6, 0, 2]], [[9, 0, 7, 0], [0, 2, 5, 0], [7, 0, 3, 0]], [[2, 0, 0, 9], [0, 5, 0, 5], [0, 2, 4, 0]], [[5, 0, 4, 0], [0, 3, 0, 4], [1, 0, 2, 0]], [[0, 10, 0, 8], [9, 0, 4, 0], [9, 0, 3, 0]], [[0, 9, 0, 6], [0, 6, 0, 4], [0, 5, 0, 3]], [[0, 4, 8, 0], [0, 2, 5, 0], [4, 0, 0, 2]], [[0, 4, 0, 2], [0, 4, 0, 1], [0, 3, 0, 2]], [[8, 0, 0, 4], [0, 7, 6, 0], [6, 0, 0, 2]], [[1, 0, 2, 0], [1, 0, 1, 0], [1, 0, 0, 5]], [[4, 0, 0, 6], [0, 6, 7, 0], [2, 0, 5, 0]], [[8, 0, 0, 9], [0, 7, 5, 0], [5, 0, 0, 6]], [[4, 0, 0, 6], [0, 5, 0, 5], [0, 4, 3, 0]], [[8, 0, 8, 0], [0, 8, 8, 0], [0, 8, 0, 2]], [[7, 0, 7, 0], [6, 0, 5, 0], [4, 0, 4, 0]], [[7, 0, 2, 0], [0, 5, 1, 0], [0, 5, 0, 4]], [[6, 0, 10, 0], [0, 8, 0, 2], [3, 0, 0, 1]], [[0, 3, 1, 0], [0, 3, 0, 6], [0, 3, 0, 4]], [[0, 0, 0, 0]]]
